sing20150718.12
TTAA  68121 48698
99005 30457 20004 00060 29856 14006 92750 23637 14017
85486 19442 13510 70136 12057 11509 50587 04976 13012
40759 13163 07019 30972 29558 09014 25099 38950 06026
20248 51543 06050 15429 66139 06565 10664 80931 09031
88999
77141 07073 42213=
TTCC  6812/ 48698=
TTDD  6812/ 48698
11909 85339 22889 84320 33868 82141 44864 82145 55821
83950 66783 78750 77762 77738 88748 76341 99728 72329
21212 11961 08531 22942 09030 33924 08533 44895 09545
55884 08042 66873 07042 77862 06540 88852 06541 99841
06540 11831 06542 22821 06550 33811 07055 44803 07554
55794 07550 66786 07550 77779 07548 88772 07048 99742
07560 11728 08067=
